(set-info :smt-lib-version 2.7)
(set-logic QF_EIA)
(set-info :source |
Generated by: Florian Frohn
Generator: LoAT
Application: proving lower bounds on the worst-case runtime of transition systems
Target solver: SwInE
Time limit: 1.0
Benchmarks generated by the verification tool LoAT to evaluate the SMT solver
SwInE. We extracted all benchmarks with exponentiation that were generated by
LoAT when analyzing the examples from the category LIA-Lin (linear CHCs with
linear integer arithmetic) of the CHC competitions 2022 and 2023, and when
analyzing the examples from the categories "Termination of Integer Transition
Systems" and "Complexity of Integer Transition Systems" of the Termination and
Complexity Competition 2024. From the entire set, we selected those where
* SwInE v0.1.0 or SwInE-Z3 v0.1.2 failed or needed more than 1 second, or
* SwInE-Z3 v0.1.2 failed without phasing, a technique to prevent SwInE from
  computing with huge constants (described here
  https://arxiv.org/abs/2502.04761)
If several selected benchmarks only differed in lines not containing
exponentiation, we kept only one of them. This benchmark is known to be
satisfiable with the slightly different semantics of exponentiation used by the
versions of SwInE mentioned above.
|)
(set-info :license "https://creativecommons.org/licenses/by/4.0/")
(set-info :category "industrial")
(set-info :status unknown)

(declare-fun i1 () Int)
(declare-fun it392 () Int)
(declare-fun it393 () Int)
(declare-fun i2 () Int)
(declare-fun it394 () Int)
(declare-fun i3 () Int)
(declare-fun it395 () Int)
(declare-fun i4 () Int)
(declare-fun it396 () Int)
(declare-fun i5 () Int)
(declare-fun it397 () Int)
(declare-fun i6 () Int)
(declare-fun it398 () Int)
(declare-fun it399 () Int)
(declare-fun it400 () Int)
(declare-fun it401 () Int)
(declare-fun it402 () Int)
(declare-fun it403 () Int)
(declare-fun it404 () Int)
(declare-fun it405 () Int)
(declare-fun it406 () Int)
(declare-fun it407 () Int)
(declare-fun it408 () Int)
(declare-fun it409 () Int)
(declare-fun it273 () Int)
(declare-fun it414 () Int)
(declare-fun it415 () Int)
(declare-fun it416 () Int)
(declare-fun it417 () Int)
(declare-fun it418 () Int)
(declare-fun it419 () Int)
(declare-fun it424 () Int)
(declare-fun it425 () Int)
(declare-fun it426 () Int)
(declare-fun it427 () Int)
(declare-fun it428 () Int)
(declare-fun it429 () Int)
(declare-fun it432 () Int)
(declare-fun it433 () Int)
(declare-fun it434 () Int)
(declare-fun it435 () Int)
(declare-fun it436 () Int)
(declare-fun it437 () Int)
(declare-fun it440 () Int)
(declare-fun it441 () Int)
(declare-fun it442 () Int)
(declare-fun it443 () Int)
(declare-fun it444 () Int)
(declare-fun it445 () Int)
(declare-fun it452 () Int)
(declare-fun it453 () Int)
(declare-fun it454 () Int)
(declare-fun it455 () Int)
(declare-fun it456 () Int)
(declare-fun it457 () Int)
(declare-fun it462 () Int)
(declare-fun it463 () Int)
(declare-fun it464 () Int)
(declare-fun it465 () Int)
(declare-fun it466 () Int)
(declare-fun it467 () Int)
(declare-fun it420 () Int)
(assert (= (+ i1 (- 1)) 0))
(assert (= (+ it392 (- 2)) 0))
(assert (= (+ (* i2 (- 1)) it393 (- 1)) 0))
(assert (= (+ (* i3 (- 1)) it394) 0))
(assert (= (+ (* i4 (- 1)) it395) 0))
(assert (= (+ (* i5 (- 1)) it396) 0))
(assert (= (+ (* i6 (- 1)) it397) 0))
(assert (and (= (+ it392 (- 2)) 0) (>= (+ it394 (- 3)) 0)))
(assert (= (+ it398 (- 5)) 0))
(assert (= (+ it399 (* it393 (- 1)) (- 2)) 0))
(assert (= (+ it400 (* it394 (- 1))) 0))
(assert (= it401 0))
(assert (= (+ it402 (* it396 (- 1))) 0))
(assert (= (+ it403 (* it397 (- 1))) 0))
(assert (and (= (+ it398 (- 5)) 0) (>= (+ (* it401 (- 1)) it400 (- 2)) 0)))
(assert (= (+ it404 (- 7)) 0))
(assert (= (+ it405 (* it399 (- 1)) (- 2)) 0))
(assert (= (+ it406 (* it400 (- 1))) 0))
(assert (= (+ (* it401 (- 1)) it407) 0))
(assert (= it408 0))
(assert (= (+ it409 (* it403 (- 1))) 0))
(assert (let ((a!1 (>= (+ (+ (* it408 (- 2)) it406 (* it407 (- 1))) (- 3)) 0))
      (a!2 (>= (+ (+ (* it408 (- 2)) it406 (* it407 (- 1))) (- 4)) 0))
      (a!3 (+ (* (** 2 it273) (+ 0 (- 2)))
              (* (** 2 (+ it273 (- 1))) (+ 0 it408) (+ 0 (- 2)))
              (+ 0 it406)
              (+ 0 (* it407 (- 1))))))
  (and (>= (+ it404 (- 7)) 0)
       (>= (+ it273 (- 1)) 0)
       (>= (+ (* it404 (- 1)) 7) 0)
       a!1
       a!2
       (>= (+ a!3 (+ 0 1)) (+ 0 0))
       (>= a!3 (+ 0 0)))))
(assert (= (+ it414 (* it404 (- 1))) 0))
(assert (= (+ (* it273 (- 6)) (* it405 (- 1)) it415) 0))
(assert (= (+ it416 (* it406 (- 1))) 0))
(assert (= (+ it417 (* it407 (- 1))) 0))
(assert (let ((a!1 (+ (* (** 2 it273) (+ 0 it408) (+ 0 (- 1)))
              (+ 0 it418)
              (* (** 2 (+ it273 1)) (+ 0 (- 1)))
              (+ 0 2))))
  (= a!1 (+ 0 0))))
(assert (let ((a!1 (+ (* (** 2 it273) (+ 0 (- 2)))
              (+ 0 it419)
              (* (** 2 (+ it273 (- 1))) (+ 0 it408) (+ 0 (- 2)))
              (+ 0 2))))
  (= a!1 (+ 0 0))))
(assert (and (= (+ it414 (- 7)) 0)
     (>= (+ it416 (* it417 (- 1)) (* it418 (- 2)) (- 3)) 0)))
(assert (= (+ it424 (- 8)) 0))
(assert (= (+ it425 (* it415 (- 1)) (- 1)) 0))
(assert (= (+ (* it416 (- 1)) it426) 0))
(assert (= (+ (* it417 (- 1)) it427) 0))
(assert (= (+ it428 (* it418 (- 1))) 0))
(assert (= (+ (* it419 (- 1)) it429) 0))
(assert (and (= (+ it424 (- 8)) 0)
     (= (+ (* it428 (- 2)) it426 (* it427 (- 1)) (- 3)) 0)))
(assert (= (+ it432 (- 13)) 0))
(assert (= (+ (* it425 (- 1)) it433 (- 2)) 0))
(assert (= (+ (* it426 (- 1)) it434) 0))
(assert (= (+ it435 (* it427 (- 1))) 0))
(assert (= (+ (* it428 (- 1)) it436) 0))
(assert (= (+ it437 (* it428 (- 2)) (- 1)) 0))
(assert (= (+ it432 (- 13)) 0))
(assert (= (+ it440 (- 7)) 0))
(assert (= (+ it441 (* it433 (- 1)) (- 1)) 0))
(assert (= (+ it442 (* it434 (- 1))) 0))
(assert (= (+ (* it435 (- 1)) it443) 0))
(assert (= (+ it444 (* it434 (- 1))) 0))
(assert (= (+ (* it437 (- 1)) it445) 0))
(assert (and (>= (+ (* it444 2) (* it442 (- 1)) it443 2) 0) (= (+ it440 (- 7)) 0)))
(assert (= (+ it452 (- 5)) 0))
(assert (= (+ (* it441 (- 1)) it453 (- 2)) 0))
(assert (= (+ it454 (* it442 (- 1))) 0))
(assert (= (+ it455 (* it443 (- 1)) (- 1)) 0))
(assert (= (+ (* it444 (- 1)) it456) 0))
(assert (= (+ it457 (* it445 (- 1))) 0))
(assert (and (= (+ it452 (- 5)) 0) (>= (+ it454 (* it455 (- 1)) (- 2)) 0)))
(assert (= (+ it462 (- 7)) 0))
(assert (= (+ it463 (* it453 (- 1)) (- 2)) 0))
(assert (= (+ it464 (* it454 (- 1))) 0))
(assert (= (+ (* it455 (- 1)) it465) 0))
(assert (= it466 0))
(assert (= (+ (* it457 (- 1)) it467) 0))
(assert (let ((a!1 (>= (+ (+ (* it466 (- 2)) it464 (* it465 (- 1))) (- 4)) 0))
      (a!2 (+ (* (+ 0 it466) (** 2 (+ it420 (- 1))) (+ 0 (- 2)))
              (+ 0 it464)
              (* (** 2 it420) (+ 0 (- 2)))
              (+ 0 (* it465 (- 1)))))
      (a!3 (>= (+ (+ (* it466 (- 2)) it464 (* it465 (- 1))) (- 3)) 0)))
  (and (>= (+ (* it462 (- 1)) 7) 0)
       a!1
       (>= (+ it420 (- 1)) 0)
       (>= (+ a!2 (+ 0 1)) (+ 0 0))
       a!3
       (>= (+ it462 (- 7)) 0)
       (>= a!2 (+ 0 0)))))
(check-sat)
(exit)
